306 653 0 44 161 103 711 315 461 557
315 91 562 477 0 643 800 15 178 709
492 443 643 373 326 771 304 691 565 222
557 0 91 443 416 254 450 116 331 522
392 178 456 298 565 709 0 609 550 689
789 711 331 615 457 161 522 46 254 782
689 268 368 450 336 362 71 477 599 653
0 794 691 222 427 88 326 533 103 144
612 501 108 189 362 0 222 416 432 461
254 768 360 683 88 432 158 222 378 0
